Maximize
  - 18 x0 - 40 x1 + x2 + 24 x3 - 2 x4 + 0 x5 - x6 - 42 x7 + 23 x8 + 0 x9
   - 18 x10 + 0 x11 + 0 x12 + 0 x13 + 6 x14 - 28 x15 + 44 x16 + 37 x17
   + 0 x18 - 2 x19 + 0 x20 - 39 x21 - 48 x22 + 35 x23 + 35 x24 + 0 x25
   - 17 x26 - 32 x27 + 0 x28 - 45 x29 - 42 x30 - 16 x31 + 6 x32 + 0 x33
   + 26 x34 - 13 x35 + 6 x36 + 23 x37 + 0 x38 + 5 x39 + 0 x40 + 29 x41
   + 43 x42 - 10 x43 + 27 x44 + 0 x45 - 30 x46 - 21 x47 + 0 x48 - 2 x49
   - 26 x50 + 34 x51 + 44 x52 + 0 x53 + 0 x54 - 15 x55 + 0 x56 + 0 x57
   - 48 x58 + 0 x59 + 0 x60 - 15 x61 - 38 x62 - 38 x63 + 0 x64 - 12 x65
   + 48 x66 + 42 x67 + 40 x68 - 38 x69 + [ - x0 ^2 - 78 x0 * x1
   - 12 x0 * x2 + 94 x0 * x3 - 70 x0 * x4 - 48 x0 * x5 + 26 x0 * x7
   - 12 x0 * x8 + 40 x0 * x10 + 26 x0 * x11 + 14 x0 * x12 - 12 x0 * x13
   - 80 x0 * x14 + 10 x0 * x15 - 18 x0 * x16 + 48 x0 * x17 + 2 x0 * x20
   - 88 x0 * x22 + 66 x0 * x23 + 50 x0 * x24 - 16 x0 * x25 + 98 x0 * x26
   + 96 x0 * x28 - 14 x0 * x29 - 64 x0 * x30 + 40 x0 * x31 - 32 x0 * x32
   + 90 x0 * x36 + 44 x0 * x37 + 60 x0 * x38 + 84 x0 * x41 - 26 x0 * x42
   + 54 x0 * x43 + 8 x0 * x44 + 66 x0 * x45 + 50 x0 * x47 - 26 x0 * x48
   - 4 x0 * x49 + 50 x0 * x51 + 14 x0 * x52 + 58 x0 * x53 - 26 x0 * x54
   + 24 x0 * x55 + 38 x0 * x56 - 78 x0 * x57 - 28 x0 * x58 + 60 x0 * x60
   - 42 x0 * x62 + 24 x0 * x63 + 76 x0 * x64 - 88 x0 * x65 + 90 x0 * x66
   + 38 x0 * x67 - 78 x0 * x68 - 22 x1 ^2 - 50 x1 * x3 - 18 x1 * x4
   + 70 x1 * x5 + 58 x1 * x8 + 46 x1 * x9 + 42 x1 * x10 + 50 x1 * x12
   - 16 x1 * x13 + 60 x1 * x14 - 26 x1 * x15 + 48 x1 * x17 + 18 x1 * x18
   - 42 x1 * x19 + 98 x1 * x20 - 6 x1 * x26 - 34 x1 * x29 - 8 x1 * x30
   + 44 x1 * x32 + 22 x1 * x33 + 88 x1 * x34 - 58 x1 * x35 + 26 x1 * x36
   - 54 x1 * x38 + 64 x1 * x39 - 32 x1 * x40 + 6 x1 * x41 + 54 x1 * x42
   - 2 x1 * x43 - 28 x1 * x44 - 16 x1 * x45 + 76 x1 * x46 + 2 x1 * x47
   - 8 x1 * x48 + 36 x1 * x49 - 10 x1 * x50 + 28 x1 * x51 - 52 x1 * x52
   - 70 x1 * x54 - 98 x1 * x55 + 16 x1 * x56 + 70 x1 * x58 + 22 x1 * x60
   - 42 x1 * x62 + 86 x1 * x64 + 42 x1 * x67 - 60 x1 * x68 - 15 x2 ^2
   - 60 x2 * x4 - 34 x2 * x5 - 62 x2 * x7 + 68 x2 * x8 - 90 x2 * x9
   + 78 x2 * x10 - 92 x2 * x12 + 58 x2 * x13 + 72 x2 * x15 + 66 x2 * x18
   + 8 x2 * x19 - 70 x2 * x20 - 44 x2 * x21 - 34 x2 * x22 - 16 x2 * x23
   - 92 x2 * x24 + 16 x2 * x25 + 20 x2 * x28 - 48 x2 * x29 + 22 x2 * x30
   + 46 x2 * x31 + 26 x2 * x32 + 10 x2 * x33 - 52 x2 * x34 + 20 x2 * x36
   + 16 x2 * x38 + 32 x2 * x40 - 44 x2 * x42 - 70 x2 * x43 + 22 x2 * x44
   + 48 x2 * x45 + 62 x2 * x46 - 60 x2 * x49 - 60 x2 * x50 - 76 x2 * x51
   - 36 x2 * x52 - 78 x2 * x53 - 6 x2 * x55 + 32 x2 * x58 + 94 x2 * x59
   - 24 x2 * x60 + 74 x2 * x61 - 44 x2 * x62 + 38 x2 * x63 - 6 x2 * x64
   + 4 x2 * x66 + 96 x2 * x67 - 12 x2 * x68 + 20 x3 ^2 - 32 x3 * x5
   - 2 x3 * x8 - 16 x3 * x9 - 32 x3 * x12 + 78 x3 * x13 - 42 x3 * x15
   + 4 x3 * x16 - 42 x3 * x18 - 14 x3 * x19 - 60 x3 * x20 - 16 x3 * x25
   - 44 x3 * x26 + 10 x3 * x28 + 50 x3 * x29 + 74 x3 * x30 + 78 x3 * x32
   - 40 x3 * x33 + 70 x3 * x34 - 28 x3 * x36 + 16 x3 * x37 - 34 x3 * x38
   + 24 x3 * x40 - 40 x3 * x41 - 46 x3 * x43 - 68 x3 * x45 + 80 x3 * x47
   - 60 x3 * x48 + 86 x3 * x50 + 90 x3 * x51 - 40 x3 * x52 - 68 x3 * x53
   + 10 x3 * x54 - 12 x3 * x55 + 76 x3 * x56 + 38 x3 * x57 + 74 x3 * x59
   + 40 x3 * x61 + 86 x3 * x63 + 48 x3 * x67 + 36 x3 * x68 - 56 x3 * x69
   - 32 x4 ^2 + 46 x4 * x5 - 38 x4 * x6 + 18 x4 * x7 - 10 x4 * x9
   + 28 x4 * x12 + 8 x4 * x13 - 82 x4 * x16 + 46 x4 * x17 - 96 x4 * x18
   + 40 x4 * x19 - 70 x4 * x21 + 84 x4 * x22 - 88 x4 * x23 - 26 x4 * x24
   - 14 x4 * x25 + 40 x4 * x26 - 22 x4 * x27 + 74 x4 * x28 - 48 x4 * x30
   - 90 x4 * x31 + 64 x4 * x32 - 14 x4 * x34 - 60 x4 * x35 + 40 x4 * x36
   + 32 x4 * x37 + 14 x4 * x38 + 92 x4 * x39 - 48 x4 * x40 + 90 x4 * x42
   + 58 x4 * x43 - 12 x4 * x44 + 84 x4 * x47 - 46 x4 * x48 - 64 x4 * x49
   + 82 x4 * x50 - 46 x4 * x51 - 52 x4 * x53 - 76 x4 * x54 - 78 x4 * x55
   + 76 x4 * x56 + 50 x4 * x57 - 38 x4 * x58 + 86 x4 * x59 - 84 x4 * x61
   + 94 x4 * x62 + 38 x4 * x63 - 2 x4 * x65 + 62 x4 * x66 + 96 x4 * x68
   + 62 x4 * x69 + 22 x5 * x6 + 8 x5 * x7 - 68 x5 * x8 - 8 x5 * x9
   + 2 x5 * x11 - 24 x5 * x12 + 16 x5 * x13 - 16 x5 * x14 - 6 x5 * x16
   - 30 x5 * x17 - 42 x5 * x18 - 10 x5 * x19 + 24 x5 * x20 - 28 x5 * x21
   - 30 x5 * x24 - 18 x5 * x25 - 88 x5 * x26 - 68 x5 * x27 + 48 x5 * x28
   - 42 x5 * x29 + 32 x5 * x31 - 24 x5 * x32 - 2 x5 * x33 - 96 x5 * x36
   - 74 x5 * x39 + 20 x5 * x42 + 72 x5 * x43 + 58 x5 * x46 + 88 x5 * x49
   + 74 x5 * x51 - 12 x5 * x52 - 10 x5 * x53 + 84 x5 * x54 + 58 x5 * x55
   - 52 x5 * x58 - 70 x5 * x59 + 84 x5 * x60 + 88 x5 * x63 - 70 x5 * x66
   + 16 x5 * x67 + 26 x5 * x68 - 82 x5 * x69 + 32 x6 ^2 - 16 x6 * x7
   - 88 x6 * x8 - 76 x6 * x9 - 62 x6 * x10 + 70 x6 * x12 + 46 x6 * x13
   + 66 x6 * x14 + 18 x6 * x16 + 58 x6 * x17 - 44 x6 * x19 - 52 x6 * x21
   - 38 x6 * x23 + 44 x6 * x24 - 36 x6 * x26 + 92 x6 * x27 + 38 x6 * x28
   - 94 x6 * x30 + 8 x6 * x31 - 22 x6 * x33 + 78 x6 * x34 - 12 x6 * x35
   + 66 x6 * x37 - 80 x6 * x38 - 84 x6 * x40 - 24 x6 * x41 - 86 x6 * x42
   + 6 x6 * x43 + 36 x6 * x44 - 16 x6 * x45 - 96 x6 * x46 - 18 x6 * x47
   + 62 x6 * x49 + 52 x6 * x50 - 40 x6 * x51 + 64 x6 * x52 - 86 x6 * x54
   + 14 x6 * x55 - 92 x6 * x57 - 98 x6 * x58 + 36 x6 * x60 + 82 x6 * x62
   + 38 x6 * x63 + 8 x6 * x65 + 78 x6 * x66 + 68 x6 * x67 + 10 x6 * x69
   - 3 x7 ^2 + 8 x7 * x8 + 24 x7 * x9 - 66 x7 * x11 + 60 x7 * x12
   + 80 x7 * x13 - 8 x7 * x14 + 74 x7 * x15 - 14 x7 * x16 - 28 x7 * x17
   - 96 x7 * x19 - 8 x7 * x20 - 6 x7 * x22 - 98 x7 * x23 + 52 x7 * x25
   + 50 x7 * x26 + 26 x7 * x27 + 72 x7 * x28 + 2 x7 * x29 + 30 x7 * x30
   - 34 x7 * x31 - 32 x7 * x32 + 38 x7 * x33 - 40 x7 * x34 + 68 x7 * x35
   + 94 x7 * x37 + 20 x7 * x38 - 58 x7 * x40 - 36 x7 * x43 - 6 x7 * x45
   - 78 x7 * x46 - 26 x7 * x48 - 12 x7 * x49 - 66 x7 * x50 + 96 x7 * x51
   - 84 x7 * x52 + 42 x7 * x53 + 6 x7 * x54 + 18 x7 * x55 - 94 x7 * x57
   - 36 x7 * x59 + 24 x7 * x60 - 44 x7 * x62 - 28 x7 * x64 - 12 x7 * x67
   + 66 x7 * x69 - 45 x8 ^2 - 20 x8 * x9 + 28 x8 * x10 + 42 x8 * x11
   - 48 x8 * x12 + 94 x8 * x13 - 84 x8 * x14 + 32 x8 * x15 - 62 x8 * x18
   - 10 x8 * x20 + 72 x8 * x21 - 18 x8 * x22 + 2 x8 * x23 + 12 x8 * x24
   - 86 x8 * x26 + 70 x8 * x27 - 6 x8 * x28 - 54 x8 * x29 - 68 x8 * x31
   - 12 x8 * x32 - 80 x8 * x33 + 76 x8 * x34 + 20 x8 * x35 + 12 x8 * x36
   - 98 x8 * x37 + 72 x8 * x38 - 78 x8 * x39 + 32 x8 * x40 + 18 x8 * x41
   + 34 x8 * x43 + 14 x8 * x44 + 96 x8 * x45 + 16 x8 * x46 + 30 x8 * x50
   + 6 x8 * x51 - 84 x8 * x52 + 38 x8 * x54 - 58 x8 * x55 + 92 x8 * x56
   + 8 x8 * x57 + 4 x8 * x58 + 26 x8 * x60 + 14 x8 * x61 - 82 x8 * x62
   + 40 x8 * x63 + 4 x8 * x66 - 26 x8 * x68 - 24 x8 * x69 - 16 x9 ^2
   + 40 x9 * x10 - 68 x9 * x11 + 96 x9 * x13 - 78 x9 * x14 - 22 x9 * x15
   - 52 x9 * x16 - 24 x9 * x17 + 56 x9 * x18 + 80 x9 * x19 - 16 x9 * x20
   - 60 x9 * x21 + 28 x9 * x22 - 60 x9 * x23 - 78 x9 * x24 - 96 x9 * x25
   + 98 x9 * x26 + 4 x9 * x29 + 60 x9 * x30 + 20 x9 * x31 + 20 x9 * x32
   + 76 x9 * x33 + 8 x9 * x34 + 60 x9 * x36 - 92 x9 * x37 + 36 x9 * x38
   + 20 x9 * x40 + 64 x9 * x42 - 20 x9 * x43 - 96 x9 * x44 + 32 x9 * x45
   + 32 x9 * x47 + 42 x9 * x48 + 62 x9 * x50 + 38 x9 * x51 + 30 x9 * x52
   + 94 x9 * x53 - 18 x9 * x54 - 30 x9 * x56 - 12 x9 * x57 - 6 x9 * x58
   + 8 x9 * x60 + 64 x9 * x61 - 62 x9 * x62 + 40 x9 * x64 - 12 x9 * x65
   - 84 x9 * x66 - 84 x9 * x67 + 94 x9 * x68 + 34 x9 * x69 - 38 x10 ^2
   - 84 x10 * x11 - 54 x10 * x12 - 20 x10 * x13 - 78 x10 * x14
   + 34 x10 * x17 - 16 x10 * x19 - 64 x10 * x20 - 28 x10 * x21
   - 98 x10 * x22 - 4 x10 * x23 + 58 x10 * x25 - 78 x10 * x26
   + 60 x10 * x27 - 90 x10 * x29 + 6 x10 * x30 - 6 x10 * x31 - 6 x10 * x32
   + 40 x10 * x33 + 26 x10 * x35 + 86 x10 * x36 - 94 x10 * x38
   - 66 x10 * x39 + 26 x10 * x40 + 32 x10 * x42 + 38 x10 * x43
   - 82 x10 * x45 - 72 x10 * x47 - 88 x10 * x51 + 94 x10 * x53
   - 62 x10 * x54 - 92 x10 * x55 + 20 x10 * x56 + 64 x10 * x58
   - 82 x10 * x59 - 8 x10 * x60 - 40 x10 * x61 + 90 x10 * x62
   - 70 x10 * x64 + 56 x10 * x66 + 94 x10 * x67 - 68 x10 * x69 - 10 x11 ^2
   + 10 x11 * x12 - 68 x11 * x14 + 76 x11 * x16 + 94 x11 * x19
   - 80 x11 * x20 + 92 x11 * x22 + 76 x11 * x23 + 72 x11 * x26
   + 82 x11 * x27 - 72 x11 * x28 + 6 x11 * x29 - 92 x11 * x30
   + 16 x11 * x31 - 34 x11 * x32 - 12 x11 * x33 - 84 x11 * x34
   - 58 x11 * x35 - 2 x11 * x36 - 2 x11 * x38 - 78 x11 * x39 - 84 x11 * x40
   + 76 x11 * x41 - 96 x11 * x42 + 34 x11 * x43 - 46 x11 * x44
   + 34 x11 * x45 - 98 x11 * x49 + 74 x11 * x50 + 76 x11 * x51
   - 30 x11 * x52 + 80 x11 * x54 - 82 x11 * x55 - 16 x11 * x56
   + 42 x11 * x58 - 66 x11 * x60 - 32 x11 * x61 + 82 x11 * x62
   + 34 x11 * x63 - 76 x11 * x64 - 10 x11 * x65 + 30 x11 * x66
   - 38 x11 * x67 - 8 x11 * x68 - 52 x11 * x69 - 31 x12 ^2 - 84 x12 * x13
   + 40 x12 * x14 - 32 x12 * x15 - 40 x12 * x16 - 54 x12 * x17
   - 50 x12 * x18 + 32 x12 * x19 + 8 x12 * x21 - 60 x12 * x22
   + 48 x12 * x24 + 54 x12 * x25 - 50 x12 * x26 + 34 x12 * x29
   + 90 x12 * x30 - 44 x12 * x31 + 78 x12 * x32 - 10 x12 * x33
   - 16 x12 * x34 - 46 x12 * x37 - 4 x12 * x38 - 90 x12 * x40
   + 82 x12 * x42 + 76 x12 * x43 - 22 x12 * x44 + 14 x12 * x46
   - 90 x12 * x49 + 40 x12 * x50 - 44 x12 * x51 + 2 x12 * x52
   + 40 x12 * x53 - 72 x12 * x54 + 28 x12 * x55 - 58 x12 * x56
   - 66 x12 * x57 + 62 x12 * x58 - 8 x12 * x59 + 32 x12 * x60
   - 46 x12 * x61 - 28 x12 * x63 - 70 x12 * x64 - 46 x12 * x65
   - 74 x12 * x66 + 34 x12 * x67 - 4 x12 * x68 - 66 x12 * x69
   - 68 x13 * x14 + 58 x13 * x16 - 4 x13 * x17 + 14 x13 * x18
   + 48 x13 * x20 - 66 x13 * x21 - 90 x13 * x22 - 16 x13 * x23
   + 70 x13 * x24 - 76 x13 * x25 - 68 x13 * x26 - 28 x13 * x27
   - 32 x13 * x28 - 46 x13 * x29 + 58 x13 * x30 - 72 x13 * x32
   - 12 x13 * x35 + 20 x13 * x36 + 58 x13 * x37 - 64 x13 * x38
   - 24 x13 * x39 + 58 x13 * x40 + 22 x13 * x42 + 86 x13 * x43
   + 80 x13 * x44 - 68 x13 * x45 + 80 x13 * x46 - 4 x13 * x47
   - 62 x13 * x48 - 32 x13 * x49 + 56 x13 * x50 + 18 x13 * x51
   - 18 x13 * x52 - 38 x13 * x53 + 6 x13 * x54 - 20 x13 * x55
   + 26 x13 * x56 + 60 x13 * x57 + 34 x13 * x58 - 78 x13 * x61
   - 46 x13 * x62 + 92 x13 * x63 - 62 x13 * x64 + 18 x13 * x65
   - 58 x13 * x66 + 72 x13 * x67 - 70 x13 * x68 - 72 x13 * x69 + 21 x14 ^2
   - 44 x14 * x15 + 6 x14 * x16 - 86 x14 * x17 + 84 x14 * x18
   + 54 x14 * x20 + 16 x14 * x21 + 88 x14 * x22 - 62 x14 * x23
   + 36 x14 * x24 + 78 x14 * x25 - 28 x14 * x26 - 34 x14 * x27
   - 22 x14 * x28 - 6 x14 * x29 - 36 x14 * x30 - 8 x14 * x31 + 52 x14 * x32
   + 98 x14 * x33 - 2 x14 * x34 - 2 x14 * x35 + 50 x14 * x36 + 28 x14 * x37
   - 70 x14 * x38 + 72 x14 * x39 + 70 x14 * x40 + 54 x14 * x41
   + 2 x14 * x42 + 26 x14 * x43 + 98 x14 * x44 + 8 x14 * x45 + 10 x14 * x46
   + 36 x14 * x50 + 84 x14 * x51 + 70 x14 * x52 - 62 x14 * x53
   + 2 x14 * x55 - 2 x14 * x56 + 68 x14 * x57 - 84 x14 * x58 - 74 x14 * x59
   + 80 x14 * x60 + 66 x14 * x62 + 62 x14 * x63 + 88 x14 * x64
   + 46 x14 * x66 - 98 x14 * x67 - 50 x14 * x68 - 12 x14 * x69 - 46 x15 ^2
   + 98 x15 * x16 + 48 x15 * x17 - 18 x15 * x18 - 82 x15 * x19
   - 70 x15 * x20 - 16 x15 * x22 - 88 x15 * x24 + 30 x15 * x25
   - 52 x15 * x26 - 64 x15 * x27 - 8 x15 * x28 - 36 x15 * x30
   + 78 x15 * x31 - 48 x15 * x32 + 64 x15 * x33 - 82 x15 * x34
   - 54 x15 * x35 + 40 x15 * x36 + 24 x15 * x37 - 62 x15 * x39
   + 62 x15 * x40 - 78 x15 * x42 - 94 x15 * x46 - 40 x15 * x49
   - 64 x15 * x50 + 30 x15 * x51 + 6 x15 * x53 + 14 x15 * x55
   - 18 x15 * x56 + 24 x15 * x59 - 38 x15 * x60 + 50 x15 * x61
   + 96 x15 * x62 + 28 x15 * x63 + 68 x15 * x65 + 80 x15 * x66
   - 24 x15 * x67 + 84 x15 * x68 + 4 x15 * x69 + 14 x16 ^2 + 66 x16 * x17
   + 20 x16 * x18 + 20 x16 * x19 + 50 x16 * x20 - 66 x16 * x21
   - 64 x16 * x23 + 92 x16 * x24 + 76 x16 * x25 - 80 x16 * x26
   - 12 x16 * x27 - 84 x16 * x28 - 8 x16 * x29 - 30 x16 * x30
   + 80 x16 * x31 - 90 x16 * x34 - 16 x16 * x35 - 76 x16 * x36
   + 60 x16 * x37 + 72 x16 * x38 - 20 x16 * x42 + 54 x16 * x44
   + 34 x16 * x45 + 96 x16 * x46 - 92 x16 * x47 + 44 x16 * x49
   + 64 x16 * x50 + 6 x16 * x51 + 8 x16 * x52 + 40 x16 * x54 - 38 x16 * x55
   + 72 x16 * x56 + 48 x16 * x59 + 86 x16 * x61 + 92 x16 * x63
   + 52 x16 * x64 + 38 x16 * x66 - 54 x16 * x67 - 18 x17 ^2 + 8 x17 * x18
   - 44 x17 * x20 - 70 x17 * x21 - 16 x17 * x22 - 8 x17 * x23
   - 60 x17 * x24 - 60 x17 * x25 - 14 x17 * x26 + 96 x17 * x28
   + 30 x17 * x30 + 60 x17 * x32 - 30 x17 * x34 + 34 x17 * x36
   + 62 x17 * x39 + 72 x17 * x40 + 96 x17 * x42 - 50 x17 * x43
   + 18 x17 * x44 + 82 x17 * x48 + 12 x17 * x50 + 50 x17 * x51
   + 50 x17 * x52 + 84 x17 * x54 + 74 x17 * x56 + 12 x17 * x57
   + 84 x17 * x58 + 74 x17 * x59 + 30 x17 * x60 - 34 x17 * x61
   - 58 x17 * x64 - 12 x17 * x65 + 46 x17 * x67 + 2 x17 * x68
   - 32 x17 * x69 - 6 x18 ^2 + 38 x18 * x19 + 42 x18 * x20 + 38 x18 * x21
   + 4 x18 * x24 - 78 x18 * x25 - 56 x18 * x27 + 94 x18 * x28
   - 28 x18 * x29 - 22 x18 * x30 - 12 x18 * x33 - 56 x18 * x34
   + 40 x18 * x35 + 66 x18 * x36 + 88 x18 * x38 + 52 x18 * x41
   - 44 x18 * x42 - 68 x18 * x43 + 34 x18 * x45 + 50 x18 * x46
   - 6 x18 * x47 + 52 x18 * x49 - 62 x18 * x50 - 50 x18 * x51
   + 52 x18 * x52 + 22 x18 * x53 + 40 x18 * x55 - 78 x18 * x56
   - 28 x18 * x57 + 40 x18 * x58 - 96 x18 * x59 + 36 x18 * x62
   - 30 x18 * x63 - 46 x18 * x64 + 82 x18 * x65 - 60 x18 * x66
   - 10 x18 * x67 - 24 x18 * x68 - 4 x18 * x69 - 19 x19 ^2 - 20 x19 * x20
   + 68 x19 * x21 + 70 x19 * x22 - 24 x19 * x23 + 6 x19 * x24
   - 88 x19 * x25 - 14 x19 * x26 + 20 x19 * x27 + 60 x19 * x28
   + 42 x19 * x29 - 18 x19 * x30 - 72 x19 * x32 + 48 x19 * x33
   + 38 x19 * x36 - 28 x19 * x37 - 36 x19 * x38 + 10 x19 * x40
   - 74 x19 * x41 - 18 x19 * x42 - 40 x19 * x43 + 54 x19 * x44
   - 54 x19 * x46 + 76 x19 * x48 + 90 x19 * x51 + 80 x19 * x52
   + 90 x19 * x53 - 70 x19 * x54 - 88 x19 * x55 - 32 x19 * x58
   + 30 x19 * x60 + 42 x19 * x61 + 98 x19 * x62 + 86 x19 * x63
   + 10 x19 * x64 - 2 x19 * x65 - 10 x19 * x66 - 62 x19 * x69 - 34 x20 ^2
   - 82 x20 * x21 + 52 x20 * x22 - 52 x20 * x23 + 76 x20 * x24
   - 48 x20 * x26 + 86 x20 * x27 - 28 x20 * x28 + 16 x20 * x29
   + 78 x20 * x30 + 34 x20 * x32 - 42 x20 * x33 - 52 x20 * x34
   + 32 x20 * x35 + 38 x20 * x36 - 16 x20 * x38 + 94 x20 * x40
   - 40 x20 * x41 + 36 x20 * x42 - 14 x20 * x43 + 76 x20 * x46
   + 38 x20 * x49 - 68 x20 * x50 - 88 x20 * x51 - 40 x20 * x54
   + 76 x20 * x55 - 94 x20 * x56 + 58 x20 * x57 + 72 x20 * x58
   + 76 x20 * x59 - 36 x20 * x63 + 72 x20 * x64 + 72 x20 * x65
   - 2 x20 * x66 - 20 x20 * x68 - 14 x20 * x69 - 98 x21 * x23
   - 78 x21 * x24 - 24 x21 * x25 + 78 x21 * x26 - 4 x21 * x30
   - 44 x21 * x31 + 68 x21 * x32 - 86 x21 * x33 + 64 x21 * x34
   - 14 x21 * x35 - 46 x21 * x36 - 28 x21 * x39 + 14 x21 * x41
   - 34 x21 * x43 - 24 x21 * x44 - 42 x21 * x46 + 8 x21 * x47
   - 26 x21 * x48 + 76 x21 * x49 + 36 x21 * x51 + 68 x21 * x53
   + 86 x21 * x54 + 4 x21 * x55 + 66 x21 * x56 + 50 x21 * x57 + 8 x21 * x59
   + 62 x21 * x61 - 64 x21 * x63 + 4 x21 * x64 + 72 x21 * x65
   - 76 x21 * x66 + 16 x21 * x67 - 40 x21 * x68 + 28 x22 ^2 + 92 x22 * x23
   - 72 x22 * x24 + 64 x22 * x26 - 12 x22 * x27 - 84 x22 * x28
   + 22 x22 * x29 + 56 x22 * x30 - 92 x22 * x31 - 98 x22 * x32
   + 58 x22 * x33 - 92 x22 * x35 - 86 x22 * x39 + 4 x22 * x40
   + 88 x22 * x41 + 14 x22 * x42 - 68 x22 * x46 - 22 x22 * x48
   + 58 x22 * x49 - 54 x22 * x50 + 78 x22 * x51 + 20 x22 * x53
   + 96 x22 * x55 + 56 x22 * x56 + 20 x22 * x59 - 30 x22 * x61
   + 20 x22 * x62 + 14 x22 * x63 + 68 x22 * x66 - 42 x22 * x67
   - 18 x22 * x68 - 88 x22 * x69 - 38 x23 ^2 + 40 x23 * x24 + 72 x23 * x25
   - 74 x23 * x26 - 8 x23 * x29 + 6 x23 * x32 - 48 x23 * x33 - 70 x23 * x34
   + 58 x23 * x35 + 38 x23 * x36 + 78 x23 * x37 + 50 x23 * x38
   - 28 x23 * x39 + 36 x23 * x40 + 56 x23 * x41 - 92 x23 * x42
   - 8 x23 * x43 + 56 x23 * x46 - 92 x23 * x47 - 12 x23 * x48
   + 28 x23 * x49 + 86 x23 * x50 - 76 x23 * x52 + 50 x23 * x54
   + 44 x23 * x55 - 52 x23 * x56 + 82 x23 * x57 + 60 x23 * x60
   - 72 x23 * x61 - 78 x23 * x63 + 6 x23 * x64 + 88 x23 * x65
   + 16 x23 * x66 + 94 x23 * x68 - 10 x24 ^2 + 34 x24 * x25 + 94 x24 * x26
   + 50 x24 * x27 + 74 x24 * x28 - 26 x24 * x29 + 26 x24 * x30
   + 26 x24 * x31 - 82 x24 * x34 + 34 x24 * x35 + 92 x24 * x36
   - 20 x24 * x37 + 14 x24 * x39 + 94 x24 * x40 + 70 x24 * x42
   + 2 x24 * x43 - 28 x24 * x44 + 8 x24 * x45 - 82 x24 * x46 - 38 x24 * x48
   - 56 x24 * x49 - 10 x24 * x51 + 86 x24 * x52 + 62 x24 * x56
   - 62 x24 * x58 + 22 x24 * x59 - 60 x24 * x60 - 42 x24 * x61
   + 16 x24 * x62 - 60 x24 * x64 + 72 x24 * x65 - 84 x24 * x66
   + 20 x24 * x69 - 76 x25 * x28 + 78 x25 * x29 - 80 x25 * x30
   - 46 x25 * x31 + 6 x25 * x32 + 82 x25 * x33 - 70 x25 * x34
   + 22 x25 * x35 - 60 x25 * x36 - 88 x25 * x40 + 80 x25 * x41
   - 14 x25 * x42 + 64 x25 * x43 + 32 x25 * x44 + 20 x25 * x45
   + 24 x25 * x46 + 88 x25 * x47 + 70 x25 * x48 + 88 x25 * x49
   + 78 x25 * x50 - 76 x25 * x51 - 58 x25 * x52 - 22 x25 * x54
   + 4 x25 * x59 - 64 x25 * x61 + 88 x25 * x62 - 16 x25 * x63
   - 10 x25 * x64 - 40 x25 * x65 + 96 x25 * x66 - 56 x25 * x67
   + 58 x25 * x68 - 22 x25 * x69 - 13 x26 ^2 - 46 x26 * x27 + 98 x26 * x28
   + 48 x26 * x29 - 42 x26 * x31 + 84 x26 * x32 - 84 x26 * x33
   + 2 x26 * x37 - 30 x26 * x38 + 88 x26 * x41 - 24 x26 * x42
   - 32 x26 * x43 + 6 x26 * x44 - 26 x26 * x45 - 72 x26 * x46 - 2 x26 * x47
   - 74 x26 * x48 + 24 x26 * x51 - 84 x26 * x52 + 96 x26 * x53
   + 62 x26 * x55 - 28 x26 * x57 + 58 x26 * x58 - 58 x26 * x61
   + 46 x26 * x62 - 40 x26 * x63 + 64 x26 * x64 - 48 x26 * x65
   + 22 x26 * x67 + 46 x26 * x69 - 39 x27 ^2 - 36 x27 * x28 + 4 x27 * x30
   - 34 x27 * x31 + 68 x27 * x34 + 32 x27 * x35 + 86 x27 * x36
   + 56 x27 * x41 - 34 x27 * x42 - 76 x27 * x43 + 52 x27 * x44
   - 66 x27 * x45 - 68 x27 * x47 - 4 x27 * x48 + 92 x27 * x49 - 4 x27 * x50
   - 6 x27 * x51 + 2 x27 * x53 - 50 x27 * x55 - 86 x27 * x56 + 56 x27 * x57
   + 66 x27 * x58 + 42 x27 * x59 - 54 x27 * x60 - 86 x27 * x63
   + 96 x27 * x64 - 82 x27 * x65 + 88 x27 * x66 - 60 x27 * x67
   + 20 x27 * x68 + 18 x27 * x69 - 46 x28 * x29 - 36 x28 * x30
   - 18 x28 * x31 + 4 x28 * x32 + 2 x28 * x33 + 18 x28 * x36 - 72 x28 * x37
   + 96 x28 * x39 + 50 x28 * x41 + 62 x28 * x42 - 52 x28 * x43
   - 10 x28 * x44 - 42 x28 * x45 + 18 x28 * x46 + 50 x28 * x47
   + 92 x28 * x48 + 36 x28 * x49 + 38 x28 * x50 - 62 x28 * x51
   - 58 x28 * x52 - 76 x28 * x53 + 78 x28 * x54 + 24 x28 * x55
   + 42 x28 * x56 - 58 x28 * x57 + 98 x28 * x58 + 14 x28 * x59
   - 64 x28 * x60 + 40 x28 * x63 - 52 x28 * x64 + 16 x28 * x65
   - 94 x28 * x66 + 14 x28 * x67 + 42 x29 ^2 + 32 x29 * x31 - 60 x29 * x32
   - 28 x29 * x33 - 60 x29 * x34 + 56 x29 * x35 + 70 x29 * x38
   - 20 x29 * x39 + 16 x29 * x40 - 22 x29 * x43 - 58 x29 * x44
   + 22 x29 * x45 + 52 x29 * x46 - 16 x29 * x47 + 96 x29 * x49
   + 8 x29 * x50 - 54 x29 * x53 - 48 x29 * x54 + 30 x29 * x55
   - 96 x29 * x56 + 68 x29 * x57 + 82 x29 * x59 - 4 x29 * x60
   + 80 x29 * x61 + 90 x29 * x62 - 26 x29 * x64 - 20 x29 * x66
   + 18 x29 * x68 - 18 x29 * x69 - 8 x30 * x33 - 64 x30 * x34
   - 80 x30 * x35 + 38 x30 * x37 - 20 x30 * x38 + 62 x30 * x39
   - 28 x30 * x41 - 62 x30 * x42 + 4 x30 * x43 + 74 x30 * x44
   - 34 x30 * x45 - 98 x30 * x46 - 46 x30 * x47 + 86 x30 * x48
   - 10 x30 * x49 - 72 x30 * x50 - 28 x30 * x51 - 10 x30 * x52
   - 24 x30 * x54 + 2 x30 * x55 - 36 x30 * x56 + 38 x30 * x57
   - 84 x30 * x58 - 74 x30 * x59 - 10 x30 * x61 - 42 x30 * x62
   - 98 x30 * x63 + 20 x30 * x64 + 48 x30 * x65 - 18 x30 * x67
   + 90 x30 * x69 - 6 x31 ^2 - 88 x31 * x32 - 22 x31 * x33 + 26 x31 * x34
   - 40 x31 * x36 - 34 x31 * x38 - 64 x31 * x40 - 82 x31 * x41
   + 84 x31 * x42 - 10 x31 * x43 + 40 x31 * x44 + 94 x31 * x45
   + 64 x31 * x46 - 74 x31 * x47 - 88 x31 * x48 - 30 x31 * x50
   + 98 x31 * x51 - 88 x31 * x53 - 86 x31 * x54 + 2 x31 * x55
   + 30 x31 * x57 - 20 x31 * x59 + 4 x31 * x60 - 12 x31 * x63
   + 20 x31 * x65 - 14 x31 * x66 + 4 x31 * x67 + 6 x31 * x68 + 26 x32 ^2
   - 36 x32 * x33 + 56 x32 * x34 + 64 x32 * x35 - 2 x32 * x36
   - 46 x32 * x38 - 20 x32 * x39 - 78 x32 * x41 - 38 x32 * x42
   - 12 x32 * x44 - 54 x32 * x45 - 86 x32 * x47 + 38 x32 * x50
   + 26 x32 * x51 - 26 x32 * x52 - 32 x32 * x53 + 14 x32 * x54
   - 54 x32 * x55 - 84 x32 * x56 - 34 x32 * x57 + 22 x32 * x60
   + 72 x32 * x61 + 30 x32 * x62 + 70 x32 * x65 - 6 x32 * x66
   - 22 x32 * x67 + 76 x32 * x68 - 64 x32 * x69 + 49 x33 ^2 + 90 x33 * x34
   - 28 x33 * x35 + 58 x33 * x36 + 62 x33 * x38 + 36 x33 * x39
   - 44 x33 * x40 - 14 x33 * x42 + 74 x33 * x44 + 14 x33 * x45
   - 92 x33 * x46 + 90 x33 * x47 + 66 x33 * x48 + 72 x33 * x49
   + 16 x33 * x50 + 62 x33 * x51 + 70 x33 * x52 - 60 x33 * x55
   + 70 x33 * x56 + 86 x33 * x57 + 94 x33 * x58 + 16 x33 * x60
   - 14 x33 * x61 - 74 x33 * x62 + 74 x33 * x63 - 24 x33 * x64
   - 38 x33 * x65 - 74 x33 * x67 - 80 x33 * x69 + 40 x34 * x35
   - 18 x34 * x36 + 78 x34 * x37 - 48 x34 * x38 + 86 x34 * x39
   + 92 x34 * x40 + 88 x34 * x41 - 18 x34 * x43 + 28 x34 * x44
   + 58 x34 * x45 - 74 x34 * x47 + 64 x34 * x49 - 2 x34 * x50
   + 14 x34 * x51 - 56 x34 * x52 + 36 x34 * x53 + 16 x34 * x54
   - 74 x34 * x55 - 96 x34 * x56 + 76 x34 * x57 - 30 x34 * x59
   + 98 x34 * x60 + 22 x34 * x62 - 66 x34 * x63 - 6 x34 * x64
   - 38 x34 * x65 - 14 x34 * x66 - 40 x34 * x67 - 4 x34 * x68
   - 30 x34 * x69 - 32 x35 ^2 - 62 x35 * x36 + 66 x35 * x37 + 90 x35 * x38
   - 68 x35 * x39 - 88 x35 * x40 - 22 x35 * x41 + 36 x35 * x42
   - 50 x35 * x43 - 46 x35 * x44 + 26 x35 * x47 + 84 x35 * x48
   - 66 x35 * x49 + 18 x35 * x50 - 76 x35 * x51 - 78 x35 * x52
   + 10 x35 * x55 - 64 x35 * x56 - 18 x35 * x58 - 82 x35 * x59
   + 10 x35 * x60 + 10 x35 * x61 - 42 x35 * x63 + 24 x35 * x64
   - 2 x35 * x65 + 94 x35 * x66 - 48 x35 * x67 - 70 x35 * x68
   - 92 x35 * x69 + 37 x36 ^2 - 90 x36 * x37 - 4 x36 * x38 - 40 x36 * x40
   + 80 x36 * x42 - 62 x36 * x46 - 72 x36 * x47 - 84 x36 * x50
   - 58 x36 * x51 + 52 x36 * x52 - 56 x36 * x53 + 68 x36 * x54
   + 48 x36 * x56 - 18 x36 * x57 - 84 x36 * x58 - 6 x36 * x59
   - 94 x36 * x60 + 82 x36 * x61 + 42 x36 * x62 + 98 x36 * x63
   + 60 x36 * x64 - 78 x36 * x67 - 78 x36 * x68 - 16 x36 * x69 - 11 x37 ^2
   - 2 x37 * x38 + 46 x37 * x42 + 16 x37 * x44 + 88 x37 * x45
   + 60 x37 * x47 - 42 x37 * x48 + 60 x37 * x49 + 86 x37 * x50
   - 88 x37 * x53 - 84 x37 * x54 + 26 x37 * x56 - 34 x37 * x57
   + 72 x37 * x58 + 76 x37 * x59 + 28 x37 * x61 - 12 x37 * x62
   - 22 x37 * x63 - 52 x37 * x64 + 40 x37 * x66 + 94 x37 * x67
   - 70 x37 * x68 - 34 x37 * x69 - 19 x38 ^2 + 20 x38 * x42 - 36 x38 * x43
   + 62 x38 * x44 + 12 x38 * x46 + 42 x38 * x51 - 28 x38 * x52
   + 86 x38 * x55 - 20 x38 * x57 + 60 x38 * x58 + 30 x38 * x60
   - 48 x38 * x62 + 70 x38 * x63 + 12 x38 * x64 - 46 x38 * x67
   - 48 x38 * x68 - 46 x38 * x69 + 33 x39 ^2 - 32 x39 * x40 + 60 x39 * x41
   + 82 x39 * x43 + 86 x39 * x44 - 26 x39 * x46 + 76 x39 * x47
   - 24 x39 * x49 - 68 x39 * x51 - 40 x39 * x52 + 76 x39 * x53
   + 36 x39 * x54 - 44 x39 * x55 + 88 x39 * x57 + 30 x39 * x58
   - 62 x39 * x59 + 40 x39 * x60 + 66 x39 * x61 - 40 x39 * x62
   + 80 x39 * x63 - 60 x39 * x64 - 96 x39 * x65 - 44 x39 * x66
   + 88 x39 * x68 + 24 x39 * x69 - 46 x40 * x41 + 98 x40 * x44
   - 38 x40 * x45 - 22 x40 * x46 + 82 x40 * x47 - 92 x40 * x49
   - 96 x40 * x50 + 34 x40 * x52 + 12 x40 * x55 + 48 x40 * x56
   - 72 x40 * x58 - 88 x40 * x59 - 18 x40 * x62 - 20 x40 * x63
   - 82 x40 * x64 + 16 x40 * x65 + 72 x40 * x66 + 80 x40 * x67
   - 60 x40 * x69 - 16 x41 * x46 - 10 x41 * x47 - 2 x41 * x48 + 2 x41 * x50
   + 22 x41 * x51 - 98 x41 * x52 + 64 x41 * x55 + 76 x41 * x56
   + 86 x41 * x57 + 16 x41 * x58 - 52 x41 * x59 - 10 x41 * x61
   - 6 x41 * x62 - 84 x41 * x63 + 66 x41 * x64 + 48 x41 * x66
   + 86 x41 * x67 - 68 x41 * x69 + 6 x42 ^2 - 72 x42 * x44 + 54 x42 * x45
   - 88 x42 * x46 - 82 x42 * x47 - 92 x42 * x51 - 12 x42 * x52
   + 52 x42 * x53 - 26 x42 * x54 - 38 x42 * x55 + 78 x42 * x56
   - 64 x42 * x58 - 64 x42 * x61 + 70 x42 * x62 + 40 x42 * x63
   + 66 x42 * x64 - 78 x42 * x65 + 62 x42 * x67 + 30 x42 * x69 - 20 x43 ^2
   - 4 x43 * x44 + 26 x43 * x46 - 6 x43 * x47 - 94 x43 * x48 + 52 x43 * x49
   - 52 x43 * x52 + 14 x43 * x53 + 18 x43 * x54 + 6 x43 * x55
   + 24 x43 * x56 + 26 x43 * x58 + 30 x43 * x59 + 4 x43 * x60
   - 44 x43 * x61 - 98 x43 * x64 - 18 x43 * x65 + 78 x43 * x66
   - 82 x43 * x67 - 88 x43 * x68 + 82 x43 * x69 + 94 x44 * x46
   + 98 x44 * x47 + 46 x44 * x48 + 12 x44 * x49 - 28 x44 * x50
   - 68 x44 * x51 + 26 x44 * x52 + 90 x44 * x53 + 82 x44 * x54
   - 92 x44 * x56 - 86 x44 * x57 + 88 x44 * x58 + 46 x44 * x62
   - 80 x44 * x63 + 48 x44 * x64 - 62 x44 * x66 + 62 x44 * x67
   - 90 x44 * x68 + 86 x44 * x69 - 38 x45 ^2 - 62 x45 * x48 - 6 x45 * x49
   - 38 x45 * x51 - 86 x45 * x52 + 64 x45 * x53 - 32 x45 * x54
   + 86 x45 * x55 + 98 x45 * x56 + 70 x45 * x58 + 38 x45 * x59
   - 46 x45 * x60 - 4 x45 * x61 + 42 x45 * x62 - 32 x45 * x63
   - 36 x45 * x65 - 2 x45 * x67 - 14 x45 * x69 + 7 x46 ^2 + 80 x46 * x47
   - 32 x46 * x48 + 72 x46 * x52 + 10 x46 * x53 + 92 x46 * x54
   + 90 x46 * x55 - 94 x46 * x56 + 20 x46 * x58 - 8 x46 * x60
   - 40 x46 * x61 - 98 x46 * x62 + 12 x46 * x64 + 60 x46 * x65
   - 8 x46 * x66 + 56 x46 * x68 - 54 x46 * x69 + 25 x47 ^2 + 18 x47 * x48
   + 96 x47 * x49 + 34 x47 * x50 + 6 x47 * x52 + 64 x47 * x53
   - 36 x47 * x54 - 98 x47 * x55 - 64 x47 * x57 + 56 x47 * x58
   - 66 x47 * x59 + 20 x47 * x60 - 52 x47 * x62 + 42 x47 * x63
   - 64 x47 * x64 + 14 x47 * x65 - 38 x47 * x68 + 6 x48 ^2 - 66 x48 * x50
   + 90 x48 * x51 + 86 x48 * x52 + 10 x48 * x53 + 44 x48 * x54
   - 48 x48 * x55 + 90 x48 * x56 + 20 x48 * x58 - 64 x48 * x59
   - 64 x48 * x60 + 2 x48 * x63 + 58 x48 * x64 + 26 x48 * x66
   + 72 x48 * x67 - 10 x49 ^2 + 34 x49 * x50 + 56 x49 * x51 - 28 x49 * x53
   + 62 x49 * x54 + 64 x49 * x55 - 28 x49 * x56 + 76 x49 * x57
   + 76 x49 * x58 + 64 x49 * x59 - 84 x49 * x60 - 22 x49 * x61
   + 82 x49 * x62 - 96 x49 * x63 + 70 x49 * x64 - 44 x49 * x66
   + 80 x49 * x68 + 18 x49 * x69 + 66 x50 * x51 + 30 x50 * x52
   - 64 x50 * x53 + 92 x50 * x54 + 82 x50 * x55 + 80 x50 * x57
   - 54 x50 * x58 - 38 x50 * x59 - 42 x50 * x61 - 8 x50 * x62
   - 42 x50 * x63 - 32 x50 * x66 + 92 x50 * x68 - 96 x50 * x69
   - 80 x51 * x53 + 4 x51 * x54 - 50 x51 * x55 - 62 x51 * x56 + 6 x51 * x57
   - 58 x51 * x59 - 10 x51 * x60 - 62 x51 * x61 + 76 x51 * x63
   - 38 x51 * x64 - 42 x51 * x65 - 52 x51 * x67 + 82 x51 * x68
   - 88 x51 * x69 - 45 x52 ^2 + 28 x52 * x53 - 20 x52 * x54 + 98 x52 * x55
   - 76 x52 * x56 - 44 x52 * x58 + 62 x52 * x59 - 18 x52 * x60
   - 6 x52 * x61 - 28 x52 * x63 + 46 x52 * x64 - 6 x52 * x67 + 76 x52 * x69
   - 98 x53 * x55 + 18 x53 * x56 - 28 x53 * x57 - 22 x53 * x58
   - 98 x53 * x62 + 4 x53 * x63 - 10 x53 * x64 - 86 x53 * x65
   - 76 x53 * x67 + 14 x54 ^2 + 54 x54 * x55 + 68 x54 * x56 + 4 x54 * x57
   - 80 x54 * x58 - 44 x54 * x61 + 24 x54 * x62 - 36 x54 * x64
   + 56 x54 * x66 - 64 x54 * x67 - 28 x54 * x68 - 40 x55 ^2 + 66 x55 * x56
   + 72 x55 * x57 - 54 x55 * x59 - 82 x55 * x60 + 92 x55 * x61
   - 4 x55 * x62 - 54 x55 * x63 - 58 x55 * x64 + 34 x55 * x65
   - 20 x55 * x66 - 90 x55 * x67 + 62 x55 * x68 - 22 x56 ^2 + 30 x56 * x57
   + 24 x56 * x58 + 32 x56 * x59 - 86 x56 * x60 - 48 x56 * x61
   + 26 x56 * x63 + 2 x56 * x64 - 58 x56 * x66 - 46 x56 * x67
   - 28 x56 * x68 + 78 x57 * x58 + 14 x57 * x59 + 6 x57 * x60
   - 56 x57 * x62 - 86 x57 * x63 - 88 x57 * x64 + 72 x57 * x65
   - 46 x57 * x66 + 68 x57 * x67 + 29 x58 ^2 + 70 x58 * x59 + 46 x58 * x60
   + 28 x58 * x61 + 28 x58 * x63 + 86 x58 * x64 + 40 x58 * x65
   - 62 x58 * x66 - 26 x58 * x67 - 60 x58 * x68 - 48 x59 ^2 + 16 x59 * x60
   + 42 x59 * x61 + 74 x59 * x63 + 50 x59 * x64 - 20 x59 * x65
   + 58 x59 * x69 + 12 x60 ^2 + 16 x60 * x61 + 20 x60 * x63 - 78 x60 * x64
   - 72 x60 * x66 + 46 x60 * x67 + 44 x60 * x68 + x61 ^2 + 56 x61 * x62
   + 40 x61 * x63 - 80 x61 * x64 - 42 x61 * x65 - 96 x61 * x66
   + 18 x61 * x68 + 24 x61 * x69 - 46 x62 ^2 + 34 x62 * x64 + 22 x62 * x65
   + 70 x62 * x66 + 48 x62 * x67 + 40 x62 * x68 - 94 x63 * x64
   + 58 x63 * x65 + 72 x63 * x66 - 88 x63 * x68 - 42 x63 * x69 + 23 x64 ^2
   - 2 x64 * x65 + 46 x64 * x67 - 84 x64 * x68 - 24 x64 * x69
   - 66 x65 * x66 - 8 x65 * x67 - 10 x65 * x69 - 52 x66 * x68
   + 86 x66 * x69 + 42 x68 ^2 - 26 x69 ^2 ] / 2 
Subject To
Bounds
 x0 <= 1
 x1 <= 1
 x2 <= 1
 x3 <= 1
 x4 <= 1
 x5 <= 1
 x6 <= 1
 x7 <= 1
 x8 <= 1
 x9 <= 1
 x10 <= 1
 x11 <= 1
 x12 <= 1
 x13 <= 1
 x14 <= 1
 x15 <= 1
 x16 <= 1
 x17 <= 1
 x18 <= 1
 x19 <= 1
 x20 <= 1
 x21 <= 1
 x22 <= 1
 x23 <= 1
 x24 <= 1
 x25 <= 1
 x26 <= 1
 x27 <= 1
 x28 <= 1
 x29 <= 1
 x30 <= 1
 x31 <= 1
 x32 <= 1
 x33 <= 1
 x34 <= 1
 x35 <= 1
 x36 <= 1
 x37 <= 1
 x38 <= 1
 x39 <= 1
 x40 <= 1
 x41 <= 1
 x42 <= 1
 x43 <= 1
 x44 <= 1
 x45 <= 1
 x46 <= 1
 x47 <= 1
 x48 <= 1
 x49 <= 1
 x50 <= 1
 x51 <= 1
 x52 <= 1
 x53 <= 1
 x54 <= 1
 x55 <= 1
 x56 <= 1
 x57 <= 1
 x58 <= 1
 x59 <= 1
 x60 <= 1
 x61 <= 1
 x62 <= 1
 x63 <= 1
 x64 <= 1
 x65 <= 1
 x66 <= 1
 x67 <= 1
 x68 <= 1
 x69 <= 1
End
